32	0

0	1	2
9	1	3
4	2	4	6
5	1	5
6	2	7	8
10	2	7	8
4	2	9	10
5	1	11
4	1	11
7	1	11
3	2	12	13
4	3	14	15	17
5	1	14
2	2	16	18
5	1	16
3	2	19	20
10	2	19	20
5	2	19	20
10	2	21	23
5	2	21	23
3	1	22
5	1	24
8	1	24
5	1	25
1	2	26	27
1	2	28	29
4	1	28
2	2	30	31
9	1	30
6	1	32
8	1	32
0	0
